p cnf 160 864
-1 -65 0
-1 -66 0
65 -65 0
66 -66 0
-17 -71 0
-17 -72 0
71 -71 0
72 -72 0
-33 -77 0
-33 -78 0
77 -77 0
78 -78 0
-49 -83 0
-49 -84 0
83 -83 0
84 -84 0
-2 -65 0
-2 -66 0
65 -65 0
66 -66 0
-18 -71 0
-18 -72 0
71 -71 0
72 -72 0
-34 -77 0
-34 -78 0
77 -77 0
78 -78 0
-50 -83 0
-50 -84 0
83 -83 0
84 -84 0
3 -89 -65 0
-3 89 -65 0
3 89 -66 0
-3 -89 -66 0
19 -89 -71 0
-19 89 -71 0
19 89 -72 0
-19 -89 -72 0
35 -89 -77 0
-35 89 -77 0
35 89 -78 0
-35 -89 -78 0
51 -89 -83 0
-51 89 -83 0
51 89 -84 0
-51 -89 -84 0
4 -65 0
4 -66 0
65 -65 0
66 -66 0
20 -71 0
20 -72 0
71 -71 0
72 -72 0
36 -77 0
36 -78 0
77 -77 0
78 -78 0
52 -83 0
52 -84 0
83 -83 0
84 -84 0
5 -65 0
5 -66 0
65 -65 0
66 -66 0
21 -71 0
21 -72 0
71 -71 0
72 -72 0
37 -77 0
37 -78 0
77 -77 0
78 -78 0
53 -83 0
53 -84 0
83 -83 0
84 -84 0
6 -65 0
6 -66 0
65 -65 0
66 -66 0
22 -71 0
22 -72 0
71 -71 0
72 -72 0
38 -77 0
38 -78 0
77 -77 0
78 -78 0
54 -83 0
54 -84 0
83 -83 0
84 -84 0
7 -65 0
7 -66 0
65 -65 0
66 -66 0
23 -71 0
23 -72 0
71 -71 0
72 -72 0
39 -77 0
39 -78 0
77 -77 0
78 -78 0
55 -83 0
55 -84 0
83 -83 0
84 -84 0
8 -65 0
8 -66 0
65 -65 0
66 -66 0
24 -71 0
24 -72 0
71 -71 0
72 -72 0
40 -77 0
40 -78 0
77 -77 0
78 -78 0
56 -83 0
56 -84 0
83 -83 0
84 -84 0
9 -65 0
9 -66 0
65 -65 0
66 -66 0
25 -71 0
25 -72 0
71 -71 0
72 -72 0
41 -77 0
41 -78 0
77 -77 0
78 -78 0
57 -83 0
57 -84 0
83 -83 0
84 -84 0
10 -65 0
10 -66 0
65 -65 0
66 -66 0
26 -71 0
26 -72 0
71 -71 0
72 -72 0
42 -77 0
42 -78 0
77 -77 0
78 -78 0
58 -83 0
58 -84 0
83 -83 0
84 -84 0
11 -65 0
11 -66 0
65 -65 0
66 -66 0
27 -71 0
27 -72 0
71 -71 0
72 -72 0
43 -77 0
43 -78 0
77 -77 0
78 -78 0
59 -83 0
59 -84 0
83 -83 0
84 -84 0
12 -65 0
12 -66 0
65 -65 0
66 -66 0
28 -71 0
28 -72 0
71 -71 0
72 -72 0
44 -77 0
44 -78 0
77 -77 0
78 -78 0
60 -83 0
60 -84 0
83 -83 0
84 -84 0
-13 -65 0
-13 -66 0
65 -65 0
66 -66 0
-29 -71 0
-29 -72 0
71 -71 0
72 -72 0
-45 -77 0
-45 -78 0
77 -77 0
78 -78 0
-61 -83 0
-61 -84 0
83 -83 0
84 -84 0
-14 -65 0
-14 -66 0
65 -65 0
66 -66 0
-30 -71 0
-30 -72 0
71 -71 0
72 -72 0
-46 -77 0
-46 -78 0
77 -77 0
78 -78 0
-62 -83 0
-62 -84 0
83 -83 0
84 -84 0
15 -65 0
15 -66 0
65 -65 0
66 -66 0
31 -71 0
31 -72 0
71 -71 0
72 -72 0
47 -77 0
47 -78 0
77 -77 0
78 -78 0
63 -83 0
63 -84 0
83 -83 0
84 -84 0
-16 -65 0
-16 -66 0
65 -65 0
66 -66 0
-32 -71 0
-32 -72 0
71 -71 0
72 -72 0
-48 -77 0
-48 -78 0
77 -77 0
78 -78 0
-64 -83 0
-64 -84 0
83 -83 0
84 -84 0
-137 65 0
137 -65 0
-138 66 0
137 -66 0
-137 -65 0
-138 -66 0
-143 65 137 0
143 -65 0
143 -137 0
-144 66 138 0
144 -66 0
144 -138 0
-143 -71 0
-144 -72 0
-149 71 143 0
149 -71 0
149 -143 0
-150 72 144 0
150 -72 0
150 -144 0
-149 -77 0
-150 -78 0
-155 77 149 0
155 -77 0
155 -149 0
-156 78 150 0
156 -78 0
156 -150 0
-155 -83 0
-156 -84 0
155 0
156 0
-1 -67 0
-1 -68 0
67 -67 0
68 -68 0
-17 -73 0
-17 -74 0
73 -73 0
74 -74 0
-33 -79 0
-33 -80 0
79 -79 0
80 -80 0
-49 -85 0
-49 -86 0
85 -85 0
86 -86 0
-2 -67 0
-2 -68 0
67 -67 0
68 -68 0
-18 -73 0
-18 -74 0
73 -73 0
74 -74 0
-34 -79 0
-34 -80 0
79 -79 0
80 -80 0
-50 -85 0
-50 -86 0
85 -85 0
86 -86 0
3 -90 -67 0
-3 90 -67 0
3 90 -68 0
-3 -90 -68 0
19 -90 -73 0
-19 90 -73 0
19 90 -74 0
-19 -90 -74 0
35 -90 -79 0
-35 90 -79 0
35 90 -80 0
-35 -90 -80 0
51 -90 -85 0
-51 90 -85 0
51 90 -86 0
-51 -90 -86 0
4 -67 0
4 -68 0
67 -67 0
68 -68 0
20 -73 0
20 -74 0
73 -73 0
74 -74 0
36 -79 0
36 -80 0
79 -79 0
80 -80 0
52 -85 0
52 -86 0
85 -85 0
86 -86 0
5 -67 0
5 -68 0
67 -67 0
68 -68 0
21 -73 0
21 -74 0
73 -73 0
74 -74 0
37 -79 0
37 -80 0
79 -79 0
80 -80 0
53 -85 0
53 -86 0
85 -85 0
86 -86 0
6 -91 -67 0
-6 91 -67 0
6 91 -68 0
-6 -91 -68 0
22 -91 -73 0
-22 91 -73 0
22 91 -74 0
-22 -91 -74 0
38 -91 -79 0
-38 91 -79 0
38 91 -80 0
-38 -91 -80 0
54 -91 -85 0
-54 91 -85 0
54 91 -86 0
-54 -91 -86 0
7 -67 0
7 -68 0
67 -67 0
68 -68 0
23 -73 0
23 -74 0
73 -73 0
74 -74 0
39 -79 0
39 -80 0
79 -79 0
80 -80 0
55 -85 0
55 -86 0
85 -85 0
86 -86 0
8 -67 0
8 -68 0
67 -67 0
68 -68 0
24 -73 0
24 -74 0
73 -73 0
74 -74 0
40 -79 0
40 -80 0
79 -79 0
80 -80 0
56 -85 0
56 -86 0
85 -85 0
86 -86 0
9 -92 -67 0
-9 92 -67 0
9 92 -68 0
-9 -92 -68 0
25 -92 -73 0
-25 92 -73 0
25 92 -74 0
-25 -92 -74 0
41 -92 -79 0
-41 92 -79 0
41 92 -80 0
-41 -92 -80 0
57 -92 -85 0
-57 92 -85 0
57 92 -86 0
-57 -92 -86 0
10 -67 0
10 -68 0
67 -67 0
68 -68 0
26 -73 0
26 -74 0
73 -73 0
74 -74 0
42 -79 0
42 -80 0
79 -79 0
80 -80 0
58 -85 0
58 -86 0
85 -85 0
86 -86 0
11 -67 0
11 -68 0
67 -67 0
68 -68 0
27 -73 0
27 -74 0
73 -73 0
74 -74 0
43 -79 0
43 -80 0
79 -79 0
80 -80 0
59 -85 0
59 -86 0
85 -85 0
86 -86 0
12 -67 0
12 -68 0
67 -67 0
68 -68 0
28 -73 0
28 -74 0
73 -73 0
74 -74 0
44 -79 0
44 -80 0
79 -79 0
80 -80 0
60 -85 0
60 -86 0
85 -85 0
86 -86 0
13 -93 -67 0
-13 93 -67 0
13 93 -68 0
-13 -93 -68 0
29 -93 -73 0
-29 93 -73 0
29 93 -74 0
-29 -93 -74 0
45 -93 -79 0
-45 93 -79 0
45 93 -80 0
-45 -93 -80 0
61 -93 -85 0
-61 93 -85 0
61 93 -86 0
-61 -93 -86 0
14 -94 -67 0
-14 94 -67 0
14 94 -68 0
-14 -94 -68 0
30 -94 -73 0
-30 94 -73 0
30 94 -74 0
-30 -94 -74 0
46 -94 -79 0
-46 94 -79 0
46 94 -80 0
-46 -94 -80 0
62 -94 -85 0
-62 94 -85 0
62 94 -86 0
-62 -94 -86 0
15 -67 0
15 -68 0
67 -67 0
68 -68 0
31 -73 0
31 -74 0
73 -73 0
74 -74 0
47 -79 0
47 -80 0
79 -79 0
80 -80 0
63 -85 0
63 -86 0
85 -85 0
86 -86 0
16 -95 -67 0
-16 95 -67 0
16 95 -68 0
-16 -95 -68 0
32 -95 -73 0
-32 95 -73 0
32 95 -74 0
-32 -95 -74 0
48 -95 -79 0
-48 95 -79 0
48 95 -80 0
-48 -95 -80 0
64 -95 -85 0
-64 95 -85 0
64 95 -86 0
-64 -95 -86 0
-139 67 0
139 -67 0
-140 68 0
139 -68 0
-139 -67 0
-140 -68 0
-145 67 139 0
145 -67 0
145 -139 0
-146 68 140 0
146 -68 0
146 -140 0
-145 -73 0
-146 -74 0
-151 73 145 0
151 -73 0
151 -145 0
-152 74 146 0
152 -74 0
152 -146 0
-151 -79 0
-152 -80 0
-157 79 151 0
157 -79 0
157 -151 0
-158 80 152 0
158 -80 0
158 -152 0
-157 -85 0
-158 -86 0
157 0
158 0
1 -96 -69 0
-1 96 -69 0
1 96 -70 0
-1 -96 -70 0
17 -96 -75 0
-17 96 -75 0
17 96 -76 0
-17 -96 -76 0
33 -96 -81 0
-33 96 -81 0
33 96 -82 0
-33 -96 -82 0
49 -96 -87 0
-49 96 -87 0
49 96 -88 0
-49 -96 -88 0
2 -97 -69 0
-2 97 -69 0
2 97 -70 0
-2 -97 -70 0
18 -97 -75 0
-18 97 -75 0
18 97 -76 0
-18 -97 -76 0
34 -97 -81 0
-34 97 -81 0
34 97 -82 0
-34 -97 -82 0
50 -97 -87 0
-50 97 -87 0
50 97 -88 0
-50 -97 -88 0
-3 -69 0
-3 -70 0
69 -69 0
70 -70 0
-19 -75 0
-19 -76 0
75 -75 0
76 -76 0
-35 -81 0
-35 -82 0
81 -81 0
82 -82 0
-51 -87 0
-51 -88 0
87 -87 0
88 -88 0
4 -98 -69 0
-4 98 -69 0
4 98 -70 0
-4 -98 -70 0
20 -98 -75 0
-20 98 -75 0
20 98 -76 0
-20 -98 -76 0
36 -98 -81 0
-36 98 -81 0
36 98 -82 0
-36 -98 -82 0
52 -98 -87 0
-52 98 -87 0
52 98 -88 0
-52 -98 -88 0
5 -69 0
5 -70 0
69 -69 0
70 -70 0
21 -75 0
21 -76 0
75 -75 0
76 -76 0
37 -81 0
37 -82 0
81 -81 0
82 -82 0
53 -87 0
53 -88 0
87 -87 0
88 -88 0
6 -69 0
6 -70 0
69 -69 0
70 -70 0
22 -75 0
22 -76 0
75 -75 0
76 -76 0
38 -81 0
38 -82 0
81 -81 0
82 -82 0
54 -87 0
54 -88 0
87 -87 0
88 -88 0
7 -69 0
7 -70 0
69 -69 0
70 -70 0
23 -75 0
23 -76 0
75 -75 0
76 -76 0
39 -81 0
39 -82 0
81 -81 0
82 -82 0
55 -87 0
55 -88 0
87 -87 0
88 -88 0
8 -69 0
8 -70 0
69 -69 0
70 -70 0
24 -75 0
24 -76 0
75 -75 0
76 -76 0
40 -81 0
40 -82 0
81 -81 0
82 -82 0
56 -87 0
56 -88 0
87 -87 0
88 -88 0
9 -69 0
9 -70 0
69 -69 0
70 -70 0
25 -75 0
25 -76 0
75 -75 0
76 -76 0
41 -81 0
41 -82 0
81 -81 0
82 -82 0
57 -87 0
57 -88 0
87 -87 0
88 -88 0
10 -69 0
10 -70 0
69 -69 0
70 -70 0
26 -75 0
26 -76 0
75 -75 0
76 -76 0
42 -81 0
42 -82 0
81 -81 0
82 -82 0
58 -87 0
58 -88 0
87 -87 0
88 -88 0
11 -69 0
11 -70 0
69 -69 0
70 -70 0
27 -75 0
27 -76 0
75 -75 0
76 -76 0
43 -81 0
43 -82 0
81 -81 0
82 -82 0
59 -87 0
59 -88 0
87 -87 0
88 -88 0
12 -69 0
12 -70 0
69 -69 0
70 -70 0
28 -75 0
28 -76 0
75 -75 0
76 -76 0
44 -81 0
44 -82 0
81 -81 0
82 -82 0
60 -87 0
60 -88 0
87 -87 0
88 -88 0
13 -99 -69 0
-13 99 -69 0
13 99 -70 0
-13 -99 -70 0
29 -99 -75 0
-29 99 -75 0
29 99 -76 0
-29 -99 -76 0
45 -99 -81 0
-45 99 -81 0
45 99 -82 0
-45 -99 -82 0
61 -99 -87 0
-61 99 -87 0
61 99 -88 0
-61 -99 -88 0
14 -100 -69 0
-14 100 -69 0
14 100 -70 0
-14 -100 -70 0
30 -100 -75 0
-30 100 -75 0
30 100 -76 0
-30 -100 -76 0
46 -100 -81 0
-46 100 -81 0
46 100 -82 0
-46 -100 -82 0
62 -100 -87 0
-62 100 -87 0
62 100 -88 0
-62 -100 -88 0
15 -101 -69 0
-15 101 -69 0
15 101 -70 0
-15 -101 -70 0
31 -101 -75 0
-31 101 -75 0
31 101 -76 0
-31 -101 -76 0
47 -101 -81 0
-47 101 -81 0
47 101 -82 0
-47 -101 -82 0
63 -101 -87 0
-63 101 -87 0
63 101 -88 0
-63 -101 -88 0
16 -102 -69 0
-16 102 -69 0
16 102 -70 0
-16 -102 -70 0
32 -102 -75 0
-32 102 -75 0
32 102 -76 0
-32 -102 -76 0
48 -102 -81 0
-48 102 -81 0
48 102 -82 0
-48 -102 -82 0
64 -102 -87 0
-64 102 -87 0
64 102 -88 0
-64 -102 -88 0
-141 69 0
141 -69 0
-142 70 0
141 -70 0
-141 -69 0
-142 -70 0
-147 69 141 0
147 -69 0
147 -141 0
-148 70 142 0
148 -70 0
148 -142 0
-147 -75 0
-148 -76 0
-153 75 147 0
153 -75 0
153 -147 0
-154 76 148 0
154 -76 0
154 -148 0
-153 -81 0
-154 -82 0
-159 81 153 0
159 -81 0
159 -153 0
-160 82 154 0
160 -82 0
160 -154 0
-159 -87 0
-160 -88 0
159 0
160 0
